69
2 9 100 
3 16 88 76 
3 24 41 11 
2 103 70 
2 68 1 
2 44 65 
2 31 67 
2 69 109 
2 87 57 
1 17 
2 103 28 
2 45 3 
1 112 
2 86 26 
3 47 8 62 
2 115 95 
3 22 33 30 
2 117 70 
2 98 94 
2 97 81 
2 55 84 
2 29 12 
2 6 99 
1 110 
2 75 42 
2 66 104 
2 102 2 
2 80 107 
2 18 120 
4 14 35 73 64 
1 90 
2 83 43 
2 108 39 
2 37 10 
2 49 34 
1 15 
3 53 58 116 
1 71 
2 82 19 
2 50 35 
1 77 
1 48 
2 89 92 
2 114 36 
3 43 61 38 
1 101 
2 46 32 
1 7 
1 113 
1 51 
2 78 93 
1 25 
1 96 
2 13 72 
1 21 
1 52 
1 4 
2 38 14 
1 79 
1 118 
1 91 
1 23 
2 50 28 
1 111 
1 105 
2 54 20 
1 119 
1 40 
1 85 
